PROBLEM NAME: eil51_n16
KNAPSACK DATA TYPE: uncorrelated, similar weights
DIMENSION: 16
NUMBER OF ITEMS: 15
CAPACITY OF KNAPSACK: 1364264
MIN SPEED: 0.1
MAX SPEED: 1
RENTING RATIO: 12.07
EDGE_WEIGHT_TYPE: CEIL_2D
NODE_COORD_SECTION	(INDEX, X, Y):
1	49	49
2	20	26
3	31	32
4	5	25
5	8	52
6	30	48
7	58	48
8	37	69
9	38	46
10	46	10
11	10	17
12	21	10
13	32	39
14	25	55
15	56	37
16	30	40
ITEMS SECTION	(INDEX, PROFIT, WEIGHT, ASSIGNED NODE NUMBER):
1	970	100066	8
2	930	100080	14
3	925	100033	5
4	906	100007	6
5	851	100090	9
6	811	100011	16
7	724	100026	13
8	700	100082	3
9	581	100042	2
10	532	100090	4
11	493	100030	11
12	428	100017	12
13	416	100009	10
14	300	100071	15
15	148	100037	7
